Set parameter TimeLimit to value 1200
Gurobi Optimizer version 10.0.2 build v10.0.2rc0 (win64)

CPU model: Intel(R) Core(TM) i7-10750H CPU @ 2.60GHz, instruction set [SSE2|AVX|AVX2]
Thread count: 6 physical cores, 12 logical processors, using up to 12 threads

Optimize a model with 892 rows, 16488 columns and 5406 nonzeros
Model fingerprint: 0x5a324abd
Model has 14855 quadratic constraints
Variable types: 38 continuous, 16450 integer (16450 binary)
Coefficient statistics:
  Matrix range     [1e+00, 1e+06]
  QMatrix range    [1e+00, 1e+00]
  QLMatrix range   [6e-01, 1e+06]
  Objective range  [1e+00, 1e+00]
  Bounds range     [1e+00, 1e+00]
  RHS range        [1e+00, 1e+06]
Presolve added 314 rows and 0 columns
Presolve removed 0 rows and 2010 columns
Presolve time: 0.09s
Presolved: 87025 rows, 39153 columns, 227636 nonzeros
Variable types: 11738 continuous, 27415 integer (27415 binary)

Deterministic concurrent LP optimizer: primal and dual simplex (primal and dual model)
Showing first log only...

Root relaxation presolved: 70612 rows, 25053 columns, 387396 nonzeros

Concurrent spin time: 0.16s

Solved with primal simplex (primal model)

Root relaxation: objective 0.000000e+00, 2244 iterations, 1.20 seconds (1.23 work units)
Total elapsed time = 8.45s

    Nodes    |    Current Node    |     Objective Bounds      |     Work
 Expl Unexpl |  Obj  Depth IntInf | Incumbent    BestBd   Gap | It/Node Time

     0     0    0.00000    0  285          -    0.00000      -     -   16s
H    0     0                     267.2595397    0.00000   100%     -   19s
     0     0    0.00000    0  450  267.25954    0.00000   100%     -   31s
     0     0    0.00000    0  389  267.25954    0.00000   100%     -   33s
     0     0    0.00000    0  483  267.25954    0.00000   100%     -   44s
H    0     0                     255.0656934    0.00000   100%     -   45s
     0     0    0.00000    0  505  255.06569    0.00000   100%     -   46s
     0     0    0.00000    0  629  255.06569    0.00000   100%     -   58s
     0     0    0.00000    0  510  255.06569    0.00000   100%     -   59s
     0     0    0.00000    0  514  255.06569    0.00000   100%     -   62s
     0     0    0.00000    0  397  255.06569    0.00000   100%     -   71s
     0     0    0.00000    0  379  255.06569    0.00000   100%     -   72s
     0     0    0.00000    0  405  255.06569    0.00000   100%     -   80s
     0     0    0.00000    0  405  255.06569    0.00000   100%     -   86s
H    0     0                     250.5431263    0.00000   100%     -   92s
     0     2    0.00000    0  405  250.54313    0.00000   100%     -  104s
     1     4    0.00000    1  373  250.54313    0.00000   100% 14841  110s
     3     8    0.00000    2  468  250.54313    0.00000   100%  7928  121s
     7    14    0.00000    3  544  250.54313    0.00000   100%  5483  136s
    13    20    0.00000    4  462  250.54313    0.00000   100%  4868  154s
    19    26    0.00000    5  496  250.54313    0.00000   100%  5638  179s
    25    32    0.00000    6  504  250.54313    0.00000   100%  4555  181s
    31    42    0.00000    7  413  250.54313    0.00000   100%  3936  186s
H   39    42                     241.7444057    0.00000   100%  3265  186s
    50    79    0.00000    9  333  241.74441    0.00000   100%  2838  195s
H   79    85                     241.7444056    0.00000   100%  2192  237s
H   80    85                     230.1971578    0.00000   100%  2188  237s
    85   185    0.00000   13  182  230.19716    0.00000   100%  2149  261s
H  127   185                     209.4909828    0.00000   100%  1866  261s
H  205   441                     209.4909828    0.00000   100%  1682  319s
H  251   441                     202.1747342    0.00000   100%  1604  319s
H  555   754                     200.7332754    0.00000   100%  1163  388s
  1438   859    0.00000   89   94  200.73328    0.00000   100%   812  422s
H 1887   878                     200.5150189    0.00000   100%   792  479s
H 1888   878                     200.0567376    0.00000   100%   792  479s
  1924  1130   27.34765  107  110  200.05674    0.00000   100%   797  520s
  2332  1131    0.00000   24 6406  200.05674    0.00000   100%   794  563s
  2334  1132    0.00000  120 1167  200.05674    0.00000   100%   793  614s
  2335  1133    7.01489   95  476  200.05674    0.00000   100%   793  633s
H 2335  1076                     200.0567375    0.00000   100%   793  636s
H 2335  1022                     199.6070934    0.00000   100%   793  640s
H 2336   972                     176.1439609    0.00000   100%   792  694s
H 2336   923                     169.2466883    0.00000   100%   792  694s
H 2336   877                     165.8875901    0.00000   100%   792  694s
H 2336   833                     160.6971107    0.00000   100%   792  694s
  2337   833    0.00000   33   56  160.69711    0.00000   100%   792  700s
H 2337   791                     155.4713350    0.00000   100%   792  704s
  2338   792    0.00000   31   62  155.47133    0.00000   100%   792  706s
  2339   793    0.00000  124  166  155.47133    0.00000   100%   791  725s
  2341   794    0.00000   36   70  155.47133    0.00000   100%   791  753s
  2342   795    0.00000   47  327  155.47133    0.00000   100%   790  763s
  2343   795    0.00000   69  462  155.47133    0.00000   100%   790  790s
  2344   796    0.00000   56  357  155.47133    0.00000   100%   790  795s
  2345   797    0.00000   30  634  155.47133    0.00000   100%   789  818s
  2346   797    0.00000  108  583  155.47133    0.00000   100%   789  827s
  2347   798   15.80039   37  685  155.47133    0.00000   100%   789  853s
  2348   799    0.00000   68  652  155.47133    0.00000   100%   788  862s
  2349   799   15.80039   39  571  155.47133    0.00000   100%   788  897s
  2350   800   71.93159   75  448  155.47133    0.00000   100%   788  904s
  2351   801    0.00000   76  585  155.47133    0.00000   100%   787  924s
  2352   801   15.80039   83  585  155.47133    0.00000   100%   787  935s
  2353   802    0.00000   80  585  155.47133    0.00000   100%   787  962s
  2354   806    0.00000   16   65  155.47133    0.00000   100%   920 1034s
  2356   809    0.00000   17   59  155.47133    0.00000   100%   943 1039s
  2360   814    0.00000   18   59  155.47133    0.00000   100%   945 1054s
  2366   818    0.00000   19   58  155.47133    0.00000   100%   954 1059s
  2372   822    0.00000   19  130  155.47133    0.00000   100%   956 1087s
  2378   826    0.00000   20  312  155.47133    0.00000   100%   968 1090s
  2384   830   15.33351   20  240  155.47133    0.00000   100%   967 1102s
H 2386   789                     155.1703074    0.00000   100%   970 1102s
  2390   794    0.00000   21  436  155.17031    0.00000   100%   972 1120s
  2396   799    0.00000   21  392  155.17031    0.00000   100%   984 1132s
  2403   804    0.00000   22  326  155.17031    0.00000   100%   992 1136s
  2411   826    0.00000   22  388  155.17031    0.00000   100%   993 1159s
  2439   835    0.00000   24  300  155.17031    0.00000   100%  1008 1200s

Cutting planes:
  Gomory: 3
  Cover: 4
  Implied bound: 285
  Projected implied bound: 33
  Clique: 15
  MIR: 148
  Flow cover: 29
  GUB cover: 9
  Zero half: 6
  RLT: 256
  BQP: 293

Explored 2462 nodes (2658302 simplex iterations) in 1200.11 seconds (2287.68 work units)
Thread count was 12 (of 12 available processors)

Solution count 10: 155.17 155.471 160.697 ... 200.733

Time limit reached
Best objective 1.551703074181e+02, best bound 0.000000000000e+00, gap 100.0000%
x
k = 0
k = 1
k = 2
0 -> 15 , 2 -> 1
10 -> 12 , 2 -> 1
12 -> 0 , 2 -> 1
13 -> 10 , 2 -> 1
14 -> 13 , 2 -> 1
15 -> 14 , 2 -> 1
k = 3
0 -> 6 , 3 -> 1
4 -> 7 , 3 -> 1
5 -> 4 , 3 -> 1
6 -> 5 , 3 -> 1
7 -> 8 , 3 -> 1
8 -> 0 , 3 -> 1
k = 4
0 -> 11 , 4 -> 1
1 -> 3 , 4 -> 1
2 -> 0 , 4 -> 1
3 -> 2 , 4 -> 1
9 -> 1 , 4 -> 1
11 -> 9 , 4 -> 1
y
k = 0
0 , 0 -> 1
k = 1
0 , 1 -> 1
k = 2
0 , 2 -> 1
10 , 2 -> 1
12 , 2 -> 1
13 , 2 -> 1
14 , 2 -> 1
15 , 2 -> 1
k = 3
0 , 3 -> 1
4 , 3 -> 1
5 , 3 -> 1
6 , 3 -> 1
7 , 3 -> 1
8 , 3 -> 1
k = 4
0 , 4 -> 1
1 , 4 -> 1
2 , 4 -> 1
3 , 4 -> 1
9 , 4 -> 1
11 , 4 -> 1
h_depot
0 , 0 -> 1
1 , 0 -> 1
2 , 0 -> 1
3 , 0 -> 1
4 , 1 -> 1
h_customers
1 , 1 -> 1
2 , 2 -> 1
3 , 2 -> 1
4 , 0 -> 1
5 , 0 -> 1
6 , 0 -> 1
7 , 1 -> 1
8 , 1 -> 1
9 , 1 -> 1
10 , 0 -> 1
11 , 1 -> 1
12 , 0 -> 1
13 , 0 -> 1
14 , 0 -> 1
15 , 0 -> 1
t_depot
0: 0
1: 0
2: 0
3: 22.6608
4: 89.3386
t_customers
1: 117.177
2: 153.663
3: 136.993
4: 56.2164
5: 51.7796
6: 48.4751
7: 69.5446
8: 72.5902
9: 105.596
10: 11.3991
11: 99.9187
12: 13.2838
13: 7.05534
14: 5.98607
15: 4.43519
Objective: 155.17030741812866